webassembly/ejemplos_dzn/folder15_json_96.dzn
TERM = { '.', 's(5)', 's(2)', 's(4)', 'in_1', 'local_0', 'local_1', 'in_6', 'in_2', 'in_4', 'in_3', 's(6)', 's(1)', 's(0)', 's(7)', 'in_7', 'in_5', 's(3)', 'in_0'};
null = '.';
s = 15;
n = 14;
ndeps = 10;
max_registers_sz = 4;
NR = 1;
registers = [|'local_1', 'local_0'|];
dependencies = [|'call[function_index(0)]_1', 'i32.load16_s_3', |'call[function_index(0)]_1', 'i32.load16_s_4', |'i32.load16_s_3', 'i32.store8_5', |'i32.load16_s_4', 'i32.store8_5', |'i32.store8_5', 'i32.store_7', |'i32.store_7', 'i32.load_9', |'i32.store_7', 'i32.load16_u_10', |'i32.load_9', 'i32.store_11', |'i32.load16_u_10', 'i32.store_11', |'i32.store_11', 'i32.load_14'|];
GET_ENUM = { GET1, GET2, GET3, GET4, GET5};
SET_ENUM = { SET1, SET2, SET3, SET4, SET5};
TEE_ENUM = { TEE1, TEE2, TEE3, TEE4, TEE5};
N = 13;
OP = { 'call[function_index(0)]_1', 'i32.load16_s_3', 'i32.load16_s_4', 'i32.store8_5', 'i32.add_0', 'i32.store_7', 'i32.sub_0', 'i32.load_9', 'i32.load16_u_10', 'i32.store_11', 'i32.const_0', 'i32.load_14', 'local.get_0' };
in_ops = [0, 1, 1, 2, 2, 2, 2, 1, 1, 2, 0, 1, 0 ];
out_ops = [0, 1, 1, 0, 1, 0, 1, 1, 1, 0, 1, 1, 1 ];
in1 = ['.', 'in_0', 's(0)', 's(1)', 'in_2', 's(2)', 'in_5', 's(3)', 's(4)', 's(5)', '.', 's(7)', '.' ];
in2 = ['.', '.', '.', 'in_1', 'in_3', 'in_4', 'in_6', '.', '.', 'in_7', '.', '.', '.' ];
in3 = ['.', '.', '.', '.', '.', '.', '.', '.', '.', '.', '.', '.', '.' ];
out1 = ['.', 's(0)', 's(1)', '.', 's(2)', '.', 's(3)', 's(4)', 's(5)', '.', 's(7)', 's(6)', 'local_0' ];
out2 = ['.', '.', '.', '.', '.', '.', '.', '.', '.', '.', '.', '.', '.' ];
out3 = ['.', '.', '.', '.', '.', '.', '.', '.', '.', '.', '.', '.', '.' ];
comm = [false, false, false, false, true, false, false, false, false, false, false, false, false ];
gas = [1, 1, 1, 1, 1, 1, 1, 1, 1, 1, 1, 1, 1 ];
sz = [1, 1, 1, 1, 1, 1, 1, 1, 1, 1, 1, 1, 1 ];
stor = [true, false, false, true, false, true, false, false, false, true, false, false, false ];
lb = [ 1, 1, 1, 1, 1, 1, 1, 1, 1, 1, 1, 1, 1 ];
ub = [ 15, 15, 15, 15, 15, 15, 15, 15, 15, 15, 15, 15, 15 ];
startstack = [ 'in_0', 'in_1', 'in_2', 'in_3', 'in_4', 'in_5', 'in_6', 'in_7', null, null, null, null, null, null ];
endstack = [ 's(6)', 'local_0', null, null, null, null, null, null, null, null, null, null, null, null ];
